1	1
2	2
3	1
4	3
5	4
6	4
7	1
8	1
9	1
10	1
11	1
12	1
13	4
14	1
15	1
16	1
17	1
18	4
19	4
20	1
21	1
22	1
23	1
24	1
25	2
26	2
27	1
28	2
29	2
30	2
31	2
32	4
33	4
34	4
35	5
36	1
37	1
38	1
39	2
40	2
41	1
42	1
43	2
44	1
45	2
46	1
47	4
48	4
49	1
50	1
51	2
52	4
53	2
54	1
55	1
56	1
57	2
58	4
59	4
60	1
61	1
62	1
63	1
64	4
65	4
66	1
67	4
68	1
69	1
70	4
71	1
72	2
73	2
74	1
75	1
76	1
77	2
78	1
79	1
80	1
81	2
82	1
83	2
84	1
85	4
86	4
87	2
88	2
89	1
90	1
91	2
92	1
93	1
94	1
95	1
96	4
97	2
98	1
99	1
100	1
